p cnf 272 1416
-46 35 -45 1 2 0
-15 38 -42 44 -7 0
-16 -20 35 -19 -23 0
-28 -47 3 50 39 0
13 -8 21 -15 34 0
-13 23 47 -35 41 0
-39 46 38 -26 42 0
-8 -21 14 -6 -31 0
-20 45 -40 -39 10 0
11 15 47 -40 29 0
-29 -27 49 -18 30 0
-37 -31 32 15 -6 0
-30 37 17 44 -21 0
-25 -32 35 -33 15 0
44 -35 -1 37 -34 0
-12 8 -47 -34 7 0
-20 -31 47 -35 -9 0
-19 16 36 15 -46 0
49 -35 43 -22 -32 0
15 6 -14 -29 21 0
50 9 -32 12 13 0
-44 -4 -49 -19 -30 0
44 -34 31 36 -21 0
-29 10 7 27 -32 0
-38 15 -27 -34 14 0
13 -34 -39 44 -3 0
33 16 17 32 -3 0
39 -3 46 -37 -21 0
-39 -31 7 -42 20 0
-19 1 13 -45 40 0
12 34 -47 28 -21 0
-25 -35 -15 17 30 0
2 -44 50 -27 46 0
47 -29 -37 -43 -11 0
31 45 -20 15 -28 0
-40 -31 32 42 -5 0
-25 -41 5 45 42 0
-23 -24 -14 -45 -29 0
-5 39 17 -44 1 0
-16 -4 -8 37 41 0
24 8 -44 18 -33 0
4 40 -37 9 -45 0
26 8 22 48 34 0
-4 11 -1 28 -30 0
-12 -8 48 50 49 0
-26 44 22 -40 12 0
50 47 23 37 -30 0
5 -50 -35 38 22 0
27 -34 15 -36 -32 0
14 -9 -7 -42 -36 0
21 -31 -11 -33 -9 0
26 -22 -27 -13 32 0
20 -24 40 16 -8 0
3 -43 1 11 46 0
22 -13 -12 -16 -30 0
-39 23 -4 -1 -37 0
-4 23 -15 9 2 0
-37 -30 7 9 -46 0
17 49 -27 -18 5 0
-22 -24 -42 30 -37 0
-48 -30 -27 17 33 0
1 -6 -2 -47 -16 0
29 -4 16 -28 36 0
-30 -25 -8 4 12 0
-27 41 -34 48 -33 0
15 -19 39 -31 26 0
-26 33 10 -41 -37 0
18 -12 27 7 33 0
-50 -42 40 -49 39 0
39 5 -35 -25 13 0
-17 -9 14 36 49 0
41 -7 24 21 -11 0
-3 -2 -44 -30 27 0
-46 -36 8 49 41 0
-7 49 3 -28 -50 0
-28 -15 49 22 -2 0
6 -43 46 35 -16 0
-34 28 30 -43 20 0
42 -15 32 -31 -1 0
-28 -42 -40 -3 -6 0
-47 -35 -17 -8 -49 0
3 -25 -5 -28 -18 0
-49 -25 -32 48 14 0
34 -48 -33 -50 -13 0
-37 -42 -17 25 38 0
-11 45 3 -49 -50 0
8 -48 16 43 33 0
3 -50 -48 -9 45 0
12 21 39 34 1 0
-20 -15 -11 31 5 0
-32 -5 -42 -49 29 0
-30 -44 18 27 47 0
50 1 31 44 30 0
-27 41 -15 -21 8 0
17 -8 30 -19 -16 0
-21 5 -8 -1 25 0
-27 -21 -2 -18 -45 0
-11 3 -41 44 25 0
-41 -17 -16 50 36 0
5 -20 -8 -48 50 0
-28 31 -6 -39 -25 0
-21 -16 -39 26 10 0
-16 -49 -13 -38 -40 0
-29 24 1 33 11 0
-9 50 31 30 42 0
-36 50 -20 -48 8 0
47 -31 36 18 -29 0
18 -20 37 29 -15 0
20 -19 42 29 -12 0
19 2 -28 -24 37 0
29 15 6 42 19 0
1 2 10 -12 -44 0
-7 -9 44 8 11 0
6 -33 21 -32 -30 0
-27 10 -4 23 -43 0
40 32 48 18 49 0
15 4 -37 -16 -43 0
4 -39 30 27 -37 0
-47 16 35 30 22 0
-22 37 18 -11 -30 0
-6 40 -17 25 -15 0
38 35 -22 29 15 0
4 -33 -20 50 2 0
-50 4 -1 5 48 0
1 19 13 -34 32 0
34 -39 35 -31 30 0
47 -30 -34 7 48 0
-36 -8 20 38 33 0
-43 20 -44 -4 46 0
-12 40 -19 -16 33 0
-32 36 -48 -26 -31 0
37 -47 32 21 23 0
26 -14 -20 33 -44 0
1 -17 -10 -12 -16 0
44 7 3 49 -29 0
-32 -45 18 47 5 0
24 -46 -14 -27 -42 0
-12 -13 -19 25 33 0
-25 3 -38 18 11 0
12 21 -27 -28 -40 0
12 50 5 -33 -31 0
44 25 24 20 -30 0
-34 -16 -37 39 24 0
40 45 -5 38 31 0
-39 -46 37 35 25 0
11 -35 -5 -33 17 0
42 -46 -10 -21 -5 0
44 9 37 10 -7 0
-19 -4 -7 -31 -47 0
3 -41 21 -50 -22 0
25 18 45 -44 41 0
-41 39 14 47 21 0
9 -4 -23 29 -19 0
-16 -38 50 15 -20 0
-42 17 -27 -14 -23 0
6 -32 11 9 -19 0
-32 15 -44 -8 -5 0
48 8 50 11 -21 0
-3 -8 33 -16 25 0
17 -7 -47 11 48 0
49 -3 50 -38 45 0
-16 -43 -17 -28 10 0
43 13 -24 41 7 0
-42 -14 36 -9 -12 0
-8 -14 19 46 -30 0
-32 -40 -7 15 34 0
-10 -5 -14 33 -37 0
-19 12 20 -15 11 0
5 32 -23 -16 -36 0
-46 13 -4 -5 -38 0
-27 -17 28 -5 -21 0
-29 47 50 -31 -35 0
22 -35 -12 26 39 0
-22 24 20 32 13 0
12 48 16 4 -33 0
-10 -21 29 -49 -6 0
12 -47 -37 40 -10 0
27 49 -10 -29 7 0
25 9 -44 20 -35 0
31 41 7 10 43 0
32 37 -14 44 -4 0
10 -43 39 -47 -17 0
49 -1 7 43 50 0
-48 18 36 -28 -10 0
24 -26 -30 33 8 0
-26 -7 21 2 29 0
-41 3 -32 26 9 0
32 -15 16 8 -18 0
-40 -20 -45 -8 25 0
44 23 24 -26 32 0
9 -33 28 31 -43 0
-23 8 -37 25 -9 0
-35 19 10 -28 -11 0
27 34 -15 -39 -29 0
31 25 15 9 -10 0
4 -27 25 33 -48 0
-33 -36 -35 -47 14 0
-40 25 -27 12 -34 0
-18 -14 -45 7 20 0
-27 33 37 43 -50 0
-43 -17 -15 -39 -23 0
-42 -33 -8 -46 -26 0
-42 28 -12 18 -21 0
30 44 11 32 3 0
17 -8 45 33 -5 0
-35 29 -22 -40 -42 0
40 -41 11 20 -14 0
-49 -13 -8 -26 -45 0
-27 -50 39 -19 18 0
-45 34 16 36 26 0
-16 -45 -36 -40 47 0
19 -49 28 -12 50 0
27 44 11 -34 21 0
-39 -36 10 -32 -2 0
36 -2 22 25 -27 0
22 -39 14 -21 -34 0
15 -29 50 27 16 0
-34 11 12 37 -2 0
23 -38 47 -10 -2 0
-21 49 -36 9 7 0
-23 45 -43 12 -13 0
15 14 -27 -16 4 0
7 22 4 -21 30 0
-38 15 -42 -33 35 0
-22 -6 5 3 -48 0
16 29 25 -11 -32 0
11 9 14 28 23 0
-31 34 -40 15 23 0
25 -18 2 -37 -33 0
-29 1 25 33 50 0
-28 -14 13 42 -2 0
42 -38 -18 -6 -11 0
32 21 -12 19 45 0
5 39 -37 -45 -3 0
35 45 2 -25 -30 0
-28 27 18 -36 7 0
27 23 -39 46 -13 0
-35 2 -4 29 38 0
-27 5 -21 -45 -41 0
-46 23 32 3 16 0
41 -8 20 10 -46 0
32 10 -25 -46 -41 0
-11 36 34 -43 9 0
44 -16 -5 2 -36 0
-9 13 -42 3 25 0
-2 -32 19 -47 -33 0
5 -30 -29 20 -19 0
19 -11 45 25 -31 0
-3 -14 -19 11 -10 0
-32 -18 39 -41 -28 0
-4 14 50 -37 3 0
23 49 11 21 34 0
-19 -31 -29 10 -35 0
37 8 26 21 -28 0
-8 49 -20 -47 -11 0
48 29 -20 26 5 0
-39 4 6 28 -48 0
-12 -30 -24 20 26 0
18 -27 41 -3 -12 0
-5 -46 -27 -21 -2 0
-24 -36 11 -43 -38 0
32 -49 -22 -21 47 0
-19 -16 -26 38 45 0
1 24 13 12 -26 0
22 47 -7 -6 -27 0
18 27 -49 -38 17 0
45 -27 -2 -10 35 0
24 -50 23 3 -6 0
-23 -42 -10 -25 -15 0
-10 -46 -29 31 34 0
36 25 -22 -10 5 0
-45 23 35 -44 24 0
34 43 -16 -30 33 0
49 44 -26 -38 40 0
-11 -31 -41 18 24 0
39 6 -17 -40 -27 0
-11 -17 36 35 7 0
-13 47 29 -34 8 0
-30 3 -22 7 40 0
-13 22 8 -25 -45 0
15 -42 -33 -12 16 0
-9 -12 31 5 21 0
38 26 23 -15 -4 0
42 -14 -43 -21 37 0
17 16 40 33 -46 0
43 -29 -27 -24 42 0
23 2 -31 -44 32 0
12 -42 -27 3 -46 0
4 43 5 29 -24 0
-9 -48 -23 12 -41 0
-19 -47 27 45 18 0
38 39 24 -13 10 0
4 30 -31 27 46 0
-14 48 25 27 20 0
-2 -41 -50 -35 3 0
17 -41 -19 23 43 0
-35 -4 -6 -24 -5 0
-18 -35 -13 32 22 0
21 -10 17 15 44 0
2 6 -42 -45 7 0
16 10 -9 31 -18 0
5 -17 -30 -38 22 0
49 37 43 15 14 0
25 8 -48 -35 -29 0
-32 -47 -17 -4 28 0
-11 -42 -38 -34 -9 0
-50 -19 5 33 -42 0
18 -47 23 34 -20 0
-1 20 38 19 -45 0
-45 -49 -36 -50 17 0
41 -23 8 -5 -38 0
47 -46 -44 -21 -23 0
10 -1 -2 22 37 0
39 -32 23 -31 -43 0
-19 35 46 -26 -23 0
-6 9 -48 -19 -7 0
-41 -8 40 -13 -32 0
-41 -35 16 -43 -45 0
-37 -16 -18 -19 -47 0
-28 -26 -13 -40 -47 0
15 24 -33 -30 -45 0
-28 -15 -42 40 -27 0
-50 14 7 -41 19 0
3 25 11 1 -14 0
37 5 -39 32 8 0
-22 38 -8 34 -48 0
-36 13 -16 34 7 0
-7 21 -17 -1 13 0
39 18 31 5 49 0
49 -24 -36 -37 19 0
-44 -12 10 20 36 0
-2 -5 24 -45 18 0
23 49 39 20 26 0
-12 -17 25 -9 -5 0
37 47 49 12 34 0
42 -3 41 -16 7 0
-12 -29 -40 44 5 0
18 31 13 21 48 0
40 -46 -18 -10 16 0
3 5 -25 -12 24 0
-25 6 -36 32 -17 0
29 -9 13 11 -8 0
-35 32 -39 36 -6 0
-37 -11 -18 -45 -7 0
-21 16 43 -20 -15 0
25 7 -8 -27 24 0
-4 -28 -10 6 -3 0
-6 11 -24 -48 -34 0
-20 -14 -34 31 42 0
37 12 -9 4 -8 0
-14 20 42 -40 36 0
-49 -41 -18 -42 -37 0
18 -16 -11 21 -4 0
11 -25 4 1 27 0
-16 -17 -37 -8 15 0
24 -22 7 -2 17 0
38 39 -30 -10 -31 0
-8 23 -50 -37 14 0
49 24 -10 40 21 0
-34 -15 -37 -23 -38 0
-11 25 18 -31 3 0
-21 -38 32 8 -10 0
34 -24 -1 -17 26 0
-32 16 12 42 -41 0
24 -14 -25 46 -43 0
35 -16 -36 -18 2 0
-13 -19 -46 -4 -20 0
29 11 35 47 12 0
-2 -45 -7 -17 -13 0
-33 14 -38 39 31 0
8 16 -28 -47 50 0
19 -50 2 22 14 0
3 9 -32 44 -37 0
31 23 -49 35 21 0
-3 -49 38 44 23 0
20 33 -34 -46 -35 0
38 -41 -7 9 -47 0
6 27 29 49 -23 0
-33 40 -20 -35 -26 0
43 14 45 -31 -5 0
26 3 -8 -37 -33 0
50 24 22 -19 -10 0
28 12 -35 -48 1 0
-48 44 25 -37 -47 0
-8 -13 -5 14 -10 0
-26 1 17 -49 15 0
-25 5 17 19 -46 0
-41 1 -12 -46 15 0
3 -32 -18 43 25 0
-27 -33 46 -21 -32 0
-47 -37 26 7 23 0
18 47 -39 -13 -7 0
-2 -20 -9 40 46 0
-30 -39 27 46 -48 0
10 9 27 -22 36 0
21 -38 50 29 20 0
42 48 -49 -37 -14 0
46 15 -42 41 1 0
-42 35 -9 -48 46 0
48 32 38 -36 14 0
47 -45 38 -2 -17 0
41 20 9 -17 -43 0
7 45 25 -2 -40 0
-31 -29 -46 -26 -7 0
7 -6 29 16 -33 0
19 11 40 6 13 0
1 19 -24 41 14 0
13 50 -7 22 21 0
10 -17 -5 -25 35 0
1 -9 2 -24 44 0
26 39 14 -35 33 0
50 39 24 -27 -11 0
-1 -8 -3 -39 38 0
14 -5 -48 46 39 0
24 -39 -13 21 -6 0
24 41 -37 -17 47 0
-13 -37 -2 -12 -34 0
-47 -34 24 23 -20 0
-12 -32 -6 30 -2 0
30 13 38 31 -35 0
24 18 -44 16 50 0
24 -44 45 -50 -18 0
-40 35 -1 33 31 0
40 -5 49 30 -31 0
-12 -7 -32 -19 26 0
8 37 -21 36 -30 0
2 37 7 49 31 0
-45 35 -17 -3 36 0
-25 41 38 -44 -28 0
37 -45 -35 -13 20 0
40 -7 49 -12 -48 0
-29 34 -40 -12 14 0
-50 3 -26 7 43 0
-45 -20 -44 34 27 0
-27 -10 6 -47 16 0
-19 -32 -16 -50 47 0
2 -34 -9 -19 -16 0
-40 -28 -6 -21 -10 0
26 -29 46 19 -2 0
4 23 45 20 8 0
-38 -7 25 -19 -42 0
44 23 24 7 -34 0
-45 -41 -46 -12 -4 0
3 -11 13 -45 -42 0
13 41 -38 32 -49 0
-43 16 46 -41 -20 0
18 35 -45 41 -20 0
-28 2 -41 -20 -25 0
36 1 45 48 20 0
-15 26 -44 47 -17 0
11 -36 12 -44 -28 0
45 14 30 -8 13 0
36 -39 -23 -26 -19 0
-19 -39 17 8 -47 0
16 -38 48 47 -39 0
38 9 47 -46 24 0
-44 -48 43 18 29 0
-26 -7 -25 -37 36 0
2 -22 10 9 -23 0
-39 13 -45 26 -25 0
-11 -7 30 -44 -37 0
-20 13 -49 21 -11 0
8 3 -36 22 -1 0
31 -25 29 -36 21 0
-42 3 -41 -38 -49 0
-20 -44 15 2 8 0
46 -18 12 -48 -24 0
-25 20 34 15 13 0
35 -1 19 30 -2 0
-37 -35 -33 9 42 0
36 11 27 -50 -20 0
45 -16 2 17 -14 0
-18 32 14 -39 -42 0
-9 -44 -41 28 -33 0
18 20 -50 -40 -9 0
-38 34 5 -17 9 0
-50 17 -16 25 47 0
-28 -31 22 -27 47 0
-13 38 -44 -33 28 0
-16 25 -31 14 22 0
-38 13 -47 -23 10 0
-50 33 9 -11 44 0
47 -18 28 2 -9 0
-23 -29 14 8 10 0
-40 -14 21 12 -39 0
40 -7 15 -37 -12 0
-13 45 -32 -22 -25 0
-19 -27 5 6 26 0
-40 -27 23 24 12 0
-14 33 -3 -17 -15 0
9 16 -37 -41 -13 0
-34 -47 -36 -40 20 0
-37 -1 -19 -39 29 0
-28 -15 -29 -32 -49 0
36 -19 20 -2 -29 0
-12 -49 8 -40 -18 0
-2 43 8 15 39 0
21 -50 35 -46 26 0
4 -21 30 41 15 0
-35 13 39 33 -42 0
-1 -3 51 0
1 -3 -51 0
-1 3 -51 0
1 3 51 0
-4 5 52 0
4 5 -52 0
-4 -5 -52 0
4 -5 52 0
6 7 53 0
-6 7 -53 0
6 -7 -53 0
-6 -7 53 0
-9 16 54 0
9 16 -54 0
-9 -16 -54 0
9 -16 54 0
18 -19 55 0
-18 -19 -55 0
18 19 -55 0
-18 19 55 0
-22 -23 56 0
22 -23 -56 0
-22 23 -56 0
22 23 56 0
25 26 57 0
-25 26 -57 0
25 -26 -57 0
-25 -26 57 0
29 -32 58 0
-29 -32 -58 0
29 32 -58 0
-29 32 58 0
37 -40 59 0
-37 -40 -59 0
37 40 -59 0
-37 40 59 0
-42 44 60 0
42 44 -60 0
-42 -44 -60 0
42 -44 60 0
-45 47 61 0
45 47 -61 0
-45 -47 -61 0
45 -47 61 0
-48 -49 62 0
48 -49 -62 0
-48 49 -62 0
48 49 62 0
50 -51 63 0
-50 -51 -63 0
50 51 -63 0
-50 51 63 0
52 -53 64 0
-52 -53 -64 0
52 53 -64 0
-52 53 64 0
54 -55 65 0
-54 -55 -65 0
54 55 -65 0
-54 55 65 0
56 -57 66 0
-56 -57 -66 0
56 57 -66 0
-56 57 66 0
58 -59 67 0
-58 -59 -67 0
58 59 -67 0
-58 59 67 0
60 -61 68 0
-60 -61 -68 0
60 61 -68 0
-60 61 68 0
62 -63 69 0
-62 -63 -69 0
62 63 -69 0
-62 63 69 0
64 -65 70 0
-64 -65 -70 0
64 65 -70 0
-64 65 70 0
66 -67 71 0
-66 -67 -71 0
66 67 -71 0
-66 67 71 0
68 -69 72 0
-68 -69 -72 0
68 69 -72 0
-68 69 72 0
70 -71 73 0
-70 -71 -73 0
70 71 -73 0
-70 71 73 0
72 73 0
-72 -73 0
2 -3 74 0
-2 -3 -74 0
2 3 -74 0
-2 3 74 0
-4 -5 75 0
4 -5 -75 0
-4 5 -75 0
4 5 75 0
11 -14 76 0
-11 -14 -76 0
11 14 -76 0
-11 14 76 0
17 22 77 0
-17 22 -77 0
17 -22 -77 0
-17 -22 77 0
-23 24 78 0
23 24 -78 0
-23 -24 -78 0
23 -24 78 0
-26 -29 79 0
26 -29 -79 0
-26 29 -79 0
26 29 79 0
-33 36 80 0
33 36 -80 0
-33 -36 -80 0
33 -36 80 0
37 -38 81 0
-37 -38 -81 0
37 38 -81 0
-37 38 81 0
39 -41 82 0
-39 -41 -82 0
39 41 -82 0
-39 41 82 0
-43 44 83 0
43 44 -83 0
-43 -44 -83 0
43 -44 83 0
74 -75 84 0
-74 -75 -84 0
74 75 -84 0
-74 75 84 0
76 -77 85 0
-76 -77 -85 0
76 77 -85 0
-76 77 85 0
78 -79 86 0
-78 -79 -86 0
78 79 -86 0
-78 79 86 0
80 -81 87 0
-80 -81 -87 0
80 81 -87 0
-80 81 87 0
82 -83 88 0
-82 -83 -88 0
82 83 -88 0
-82 83 88 0
84 -85 89 0
-84 -85 -89 0
84 85 -89 0
-84 85 89 0
86 -87 90 0
-86 -87 -90 0
86 87 -90 0
-86 87 90 0
-88 -89 90 0
88 -89 -90 0
-88 89 -90 0
88 89 90 0
2 3 91 0
-2 3 -91 0
2 -3 -91 0
-2 -3 91 0
4 5 92 0
-4 5 -92 0
4 -5 -92 0
-4 -5 92 0
-8 -11 93 0
8 -11 -93 0
-8 11 -93 0
8 11 93 0
13 19 94 0
-13 19 -94 0
13 -19 -94 0
-13 -19 94 0
-23 -26 95 0
23 -26 -95 0
-23 26 -95 0
23 26 95 0
27 -30 96 0
-27 -30 -96 0
27 30 -96 0
-27 30 96 0
35 39 97 0
-35 39 -97 0
35 -39 -97 0
-35 -39 97 0
-40 -42 98 0
40 -42 -98 0
-40 42 -98 0
40 42 98 0
-45 46 99 0
45 46 -99 0
-45 -46 -99 0
45 -46 99 0
90 -91 100 0
-90 -91 -100 0
90 91 -100 0
-90 91 100 0
92 -93 101 0
-92 -93 -101 0
92 93 -101 0
-92 93 101 0
94 -95 102 0
-94 -95 -102 0
94 95 -102 0
-94 95 102 0
96 -97 103 0
-96 -97 -103 0
96 97 -103 0
-96 97 103 0
98 -99 104 0
-98 -99 -104 0
98 99 -104 0
-98 99 104 0
100 -101 105 0
-100 -101 -105 0
100 101 -105 0
-100 101 105 0
102 -103 106 0
-102 -103 -106 0
102 103 -106 0
-102 103 106 0
-104 -105 106 0
104 -105 -106 0
-104 105 -106 0
104 105 106 0
2 3 107 0
-2 3 -107 0
2 -3 -107 0
-2 -3 107 0
4 5 108 0
-4 5 -108 0
4 -5 -108 0
-4 -5 108 0
6 7 109 0
-6 7 -109 0
6 -7 -109 0
-6 -7 109 0
-11 12 110 0
11 12 -110 0
-11 -12 -110 0
11 -12 110 0
-13 -14 111 0
13 -14 -111 0
-13 14 -111 0
13 14 111 0
-15 16 112 0
15 16 -112 0
-15 -16 -112 0
15 -16 112 0
-17 -20 113 0
17 -20 -113 0
-17 20 -113 0
17 20 113 0
-22 23 114 0
22 23 -114 0
-22 -23 -114 0
22 -23 114 0
24 27 115 0
-24 27 -115 0
24 -27 -115 0
-24 -27 115 0
29 30 116 0
-29 30 -116 0
29 -30 -116 0
-29 -30 116 0
-31 34 117 0
31 34 -117 0
-31 -34 -117 0
31 -34 117 0
-36 38 118 0
36 38 -118 0
-36 -38 -118 0
36 -38 118 0
-40 43 119 0
40 43 -119 0
-40 -43 -119 0
40 -43 119 0
-44 -45 120 0
44 -45 -120 0
-44 45 -120 0
44 45 120 0
-46 -49 121 0
46 -49 -121 0
-46 49 -121 0
46 49 121 0
106 -107 122 0
-106 -107 -122 0
106 107 -122 0
-106 107 122 0
108 -109 123 0
-108 -109 -123 0
108 109 -123 0
-108 109 123 0
110 -111 124 0
-110 -111 -124 0
110 111 -124 0
-110 111 124 0
112 -113 125 0
-112 -113 -125 0
112 113 -125 0
-112 113 125 0
114 -115 126 0
-114 -115 -126 0
114 115 -126 0
-114 115 126 0
116 -117 127 0
-116 -117 -127 0
116 117 -127 0
-116 117 127 0
118 -119 128 0
-118 -119 -128 0
118 119 -128 0
-118 119 128 0
120 -121 129 0
-120 -121 -129 0
120 121 -129 0
-120 121 129 0
122 -123 130 0
-122 -123 -130 0
122 123 -130 0
-122 123 130 0
124 -125 131 0
-124 -125 -131 0
124 125 -131 0
-124 125 131 0
126 -127 132 0
-126 -127 -132 0
126 127 -132 0
-126 127 132 0
128 -129 133 0
-128 -129 -133 0
128 129 -133 0
-128 129 133 0
130 -131 134 0
-130 -131 -134 0
130 131 -134 0
-130 131 134 0
132 -133 135 0
-132 -133 -135 0
132 133 -135 0
-132 133 135 0
134 135 0
-134 -135 0
1 -4 136 0
-1 -4 -136 0
1 4 -136 0
-1 4 136 0
-5 -7 137 0
5 -7 -137 0
-5 7 -137 0
5 7 137 0
8 11 138 0
-8 11 -138 0
8 -11 -138 0
-8 -11 138 0
-12 15 139 0
12 15 -139 0
-12 -15 -139 0
12 -15 139 0
-17 18 140 0
17 18 -140 0
-17 -18 -140 0
17 -18 140 0
-21 22 141 0
21 22 -141 0
-21 -22 -141 0
21 -22 141 0
24 26 142 0
-24 26 -142 0
24 -26 -142 0
-24 -26 142 0
-27 -30 143 0
27 -30 -143 0
-27 30 -143 0
27 30 143 0
31 34 144 0
-31 34 -144 0
31 -34 -144 0
-31 -34 144 0
-35 36 145 0
35 36 -145 0
-35 -36 -145 0
35 -36 145 0
-38 43 146 0
38 43 -146 0
-38 -43 -146 0
38 -43 146 0
-44 -45 147 0
44 -45 -147 0
-44 45 -147 0
44 45 147 0
-47 -48 148 0
47 -48 -148 0
-47 48 -148 0
47 48 148 0
-49 -50 149 0
49 -50 -149 0
-49 50 -149 0
49 50 149 0
136 -137 150 0
-136 -137 -150 0
136 137 -150 0
-136 137 150 0
138 -139 151 0
-138 -139 -151 0
138 139 -151 0
-138 139 151 0
140 -141 152 0
-140 -141 -152 0
140 141 -152 0
-140 141 152 0
142 -143 153 0
-142 -143 -153 0
142 143 -153 0
-142 143 153 0
144 -145 154 0
-144 -145 -154 0
144 145 -154 0
-144 145 154 0
146 -147 155 0
-146 -147 -155 0
146 147 -155 0
-146 147 155 0
148 -149 156 0
-148 -149 -156 0
148 149 -156 0
-148 149 156 0
150 -151 157 0
-150 -151 -157 0
150 151 -157 0
-150 151 157 0
152 -153 158 0
-152 -153 -158 0
152 153 -158 0
-152 153 158 0
154 -155 159 0
-154 -155 -159 0
154 155 -159 0
-154 155 159 0
156 -157 160 0
-156 -157 -160 0
156 157 -160 0
-156 157 160 0
158 -159 161 0
-158 -159 -161 0
158 159 -161 0
-158 159 161 0
160 161 0
-160 -161 0
2 -10 162 0
-2 -10 -162 0
2 10 -162 0
-2 10 162 0
12 13 163 0
-12 13 -163 0
12 -13 -163 0
-12 -13 163 0
19 21 164 0
-19 21 -164 0
19 -21 -164 0
-19 -21 164 0
-23 -25 165 0
23 -25 -165 0
-23 25 -165 0
23 25 165 0
-27 -28 166 0
27 -28 -166 0
-27 28 -166 0
27 28 166 0
29 31 167 0
-29 31 -167 0
29 -31 -167 0
-29 -31 167 0
32 -33 168 0
-32 -33 -168 0
32 33 -168 0
-32 33 168 0
-34 -37 169 0
34 -37 -169 0
-34 37 -169 0
34 37 169 0
39 -40 170 0
-39 -40 -170 0
39 40 -170 0
-39 40 170 0
-42 44 171 0
42 44 -171 0
-42 -44 -171 0
42 -44 171 0
-45 46 172 0
45 46 -172 0
-45 -46 -172 0
45 -46 172 0
-47 48 173 0
47 48 -173 0
-47 -48 -173 0
47 -48 173 0
-49 50 174 0
49 50 -174 0
-49 -50 -174 0
49 -50 174 0
162 -163 175 0
-162 -163 -175 0
162 163 -175 0
-162 163 175 0
164 -165 176 0
-164 -165 -176 0
164 165 -176 0
-164 165 176 0
166 -167 177 0
-166 -167 -177 0
166 167 -177 0
-166 167 177 0
168 -169 178 0
-168 -169 -178 0
168 169 -178 0
-168 169 178 0
170 -171 179 0
-170 -171 -179 0
170 171 -179 0
-170 171 179 0
172 -173 180 0
-172 -173 -180 0
172 173 -180 0
-172 173 180 0
174 -175 181 0
-174 -175 -181 0
174 175 -181 0
-174 175 181 0
176 -177 182 0
-176 -177 -182 0
176 177 -182 0
-176 177 182 0
178 -179 183 0
-178 -179 -183 0
178 179 -183 0
-178 179 183 0
180 -181 184 0
-180 -181 -184 0
180 181 -184 0
-180 181 184 0
182 -183 185 0
-182 -183 -185 0
182 183 -185 0
-182 183 185 0
184 185 0
-184 -185 0
1 3 186 0
-1 3 -186 0
1 -3 -186 0
-1 -3 186 0
-8 -9 187 0
8 -9 -187 0
-8 9 -187 0
8 9 187 0
10 -14 188 0
-10 -14 -188 0
10 14 -188 0
-10 14 188 0
16 17 189 0
-16 17 -189 0
16 -17 -189 0
-16 -17 189 0
19 -21 190 0
-19 -21 -190 0
19 21 -190 0
-19 21 190 0
22 -23 191 0
-22 -23 -191 0
22 23 -191 0
-22 23 191 0
26 -28 192 0
-26 -28 -192 0
26 28 -192 0
-26 28 192 0
-30 31 193 0
30 31 -193 0
-30 -31 -193 0
30 -31 193 0
32 -36 194 0
-32 -36 -194 0
32 36 -194 0
-32 36 194 0
38 -39 195 0
-38 -39 -195 0
38 39 -195 0
-38 39 195 0
40 -42 196 0
-40 -42 -196 0
40 42 -196 0
-40 42 196 0
-44 46 197 0
44 46 -197 0
-44 -46 -197 0
44 -46 197 0
-47 -48 198 0
47 -48 -198 0
-47 48 -198 0
47 48 198 0
185 -186 199 0
-185 -186 -199 0
185 186 -199 0
-185 186 199 0
187 -188 200 0
-187 -188 -200 0
187 188 -200 0
-187 188 200 0
189 -190 201 0
-189 -190 -201 0
189 190 -201 0
-189 190 201 0
191 -192 202 0
-191 -192 -202 0
191 192 -202 0
-191 192 202 0
193 -194 203 0
-193 -194 -203 0
193 194 -203 0
-193 194 203 0
195 -196 204 0
-195 -196 -204 0
195 196 -204 0
-195 196 204 0
197 -198 205 0
-197 -198 -205 0
197 198 -205 0
-197 198 205 0
199 -200 206 0
-199 -200 -206 0
199 200 -206 0
-199 200 206 0
201 -202 207 0
-201 -202 -207 0
201 202 -207 0
-201 202 207 0
203 -204 208 0
-203 -204 -208 0
203 204 -208 0
-203 204 208 0
205 -206 209 0
-205 -206 -209 0
205 206 -209 0
-205 206 209 0
207 -208 210 0
-207 -208 -210 0
207 208 -210 0
-207 208 210 0
209 210 0
-209 -210 0
-5 -9 211 0
5 -9 -211 0
-5 9 -211 0
5 9 211 0
-16 -21 212 0
16 -21 -212 0
-16 21 -212 0
16 21 212 0
-22 23 213 0
22 23 -213 0
-22 -23 -213 0
22 -23 213 0
-24 -25 214 0
24 -25 -214 0
-24 25 -214 0
24 25 214 0
26 -29 215 0
-26 -29 -215 0
26 29 -215 0
-26 29 215 0
31 36 216 0
-31 36 -216 0
31 -36 -216 0
-31 -36 216 0
-42 43 217 0
42 43 -217 0
-42 -43 -217 0
42 -43 217 0
45 -46 218 0
-45 -46 -218 0
45 46 -218 0
-45 46 218 0
210 -211 219 0
-210 -211 -219 0
210 211 -219 0
-210 211 219 0
212 -213 220 0
-212 -213 -220 0
212 213 -220 0
-212 213 220 0
214 -215 221 0
-214 -215 -221 0
214 215 -221 0
-214 215 221 0
216 -217 222 0
-216 -217 -222 0
216 217 -222 0
-216 217 222 0
218 -219 223 0
-218 -219 -223 0
218 219 -223 0
-218 219 223 0
220 -221 224 0
-220 -221 -224 0
220 221 -224 0
-220 221 224 0
-222 -223 224 0
222 -223 -224 0
-222 223 -224 0
222 223 224 0
1 5 225 0
-1 5 -225 0
1 -5 -225 0
-1 -5 225 0
-6 7 226 0
6 7 -226 0
-6 -7 -226 0
6 -7 226 0
8 -9 227 0
-8 -9 -227 0
8 9 -227 0
-8 9 227 0
13 16 228 0
-13 16 -228 0
13 -16 -228 0
-13 -16 228 0
18 20 229 0
-18 20 -229 0
18 -20 -229 0
-18 -20 229 0
21 23 230 0
-21 23 -230 0
21 -23 -230 0
-21 -23 230 0
24 25 231 0
-24 25 -231 0
24 -25 -231 0
-24 -25 231 0
26 -27 232 0
-26 -27 -232 0
26 27 -232 0
-26 27 232 0
30 31 233 0
-30 31 -233 0
30 -31 -233 0
-30 -31 233 0
35 36 234 0
-35 36 -234 0
35 -36 -234 0
-35 -36 234 0
39 40 235 0
-39 40 -235 0
39 -40 -235 0
-39 -40 235 0
41 -42 236 0
-41 -42 -236 0
41 42 -236 0
-41 42 236 0
-46 -47 237 0
46 -47 -237 0
-46 47 -237 0
46 47 237 0
-48 49 238 0
48 49 -238 0
-48 -49 -238 0
48 -49 238 0
224 -225 239 0
-224 -225 -239 0
224 225 -239 0
-224 225 239 0
226 -227 240 0
-226 -227 -240 0
226 227 -240 0
-226 227 240 0
228 -229 241 0
-228 -229 -241 0
228 229 -241 0
-228 229 241 0
230 -231 242 0
-230 -231 -242 0
230 231 -242 0
-230 231 242 0
232 -233 243 0
-232 -233 -243 0
232 233 -243 0
-232 233 243 0
234 -235 244 0
-234 -235 -244 0
234 235 -244 0
-234 235 244 0
236 -237 245 0
-236 -237 -245 0
236 237 -245 0
-236 237 245 0
238 -239 246 0
-238 -239 -246 0
238 239 -246 0
-238 239 246 0
240 -241 247 0
-240 -241 -247 0
240 241 -247 0
-240 241 247 0
242 -243 248 0
-242 -243 -248 0
242 243 -248 0
-242 243 248 0
244 -245 249 0
-244 -245 -249 0
244 245 -249 0
-244 245 249 0
246 -247 250 0
-246 -247 -250 0
246 247 -250 0
-246 247 250 0
248 -249 251 0
-248 -249 -251 0
248 249 -251 0
-248 249 251 0
250 251 0
-250 -251 0
-4 6 252 0
4 6 -252 0
-4 -6 -252 0
4 -6 252 0
8 -9 253 0
-8 -9 -253 0
8 9 -253 0
-8 9 253 0
-11 -12 254 0
11 -12 -254 0
-11 12 -254 0
11 12 254 0
13 -17 255 0
-13 -17 -255 0
13 17 -255 0
-13 17 255 0
19 -22 256 0
-19 -22 -256 0
19 22 -256 0
-19 22 256 0
-28 29 257 0
28 29 -257 0
-28 -29 -257 0
28 -29 257 0
-30 -32 258 0
30 -32 -258 0
-30 32 -258 0
30 32 258 0
-37 -38 259 0
37 -38 -259 0
-37 38 -259 0
37 38 259 0
39 -41 260 0
-39 -41 -260 0
39 41 -260 0
-39 41 260 0
42 -43 261 0
-42 -43 -261 0
42 43 -261 0
-42 43 261 0
45 46 262 0
-45 46 -262 0
45 -46 -262 0
-45 -46 262 0
-49 -50 263 0
49 -50 -263 0
-49 50 -263 0
49 50 263 0
252 -253 264 0
-252 -253 -264 0
252 253 -264 0
-252 253 264 0
254 -255 265 0
-254 -255 -265 0
254 255 -265 0
-254 255 265 0
256 -257 266 0
-256 -257 -266 0
256 257 -266 0
-256 257 266 0
258 -259 267 0
-258 -259 -267 0
258 259 -267 0
-258 259 267 0
260 -261 268 0
-260 -261 -268 0
260 261 -268 0
-260 261 268 0
262 -263 269 0
-262 -263 -269 0
262 263 -269 0
-262 263 269 0
264 -265 270 0
-264 -265 -270 0
264 265 -270 0
-264 265 270 0
266 -267 271 0
-266 -267 -271 0
266 267 -271 0
-266 267 271 0
268 -269 272 0
-268 -269 -272 0
268 269 -272 0
-268 269 272 0
-270 -271 272 0
270 -271 -272 0
-270 271 -272 0
270 271 272 0
